(declare-fun _substvar_249_ () Bool)
(declare-const v20 Bool)
(assert (xor true true true true _substvar_249_ true v20 (forall ((q20 Bool) (q21 Bool) (q22 Int) (q23 Int) (q24 Bool) (q25 Bool)) (distinct q23 2971))))
(check-sat)
